50, 4363
78, 34
108, 378
468, 204
12, 42
96, 336
96, 336
36, 126
468, 204
468, 204
312, 136
24, 84
546, 238
60, 210
36, 126
234, 102
156, 68
108, 378
48, 168
12, 42
120, 420
72, 252
468, 204
36, 126
78, 34
12, 42
390, 170
60, 210
84, 294
72, 252
546, 238
78, 34
84, 294
234, 102
120, 420
624, 272
234, 102
12, 42
546, 238
96, 336
312, 136
72, 252
390, 170
72, 252
96, 336
60, 210
60, 210
78, 34
156, 68
78, 34
108, 378
